
 102   30
  10   10   10   10   10   10   10   10   10   10   10   10   10   10   10   10   10   10   10   10   10   10   10   10   10   10   10   10   10   10

   0   0   0   0   0   0   0   0   0   0   0   0   0   0   0   0   0   0   0   0   0   0   0   0   0   0   0   0   0   0   0  29 2 3 4 5 6 7 8 9 10 11 12 13 14 15 16 17 18 19 20 21 22 25 26 30 32 33 36 38 48 
   1   0   0   0   0   0   0   0   3   0   0   0   0   0   0   0   0   1   0   4   0   0   0   0   0   0   0   0   0   1   0  13 100 68 61 55 54 49 45 44 41 40 39 37 23 
   3   0   2   0   0   0   0   0   0   0   0   1   0   1   0   0   3   0   0   0   0   0   1   0   0   0   0   0   0   7   0  13 101 99 73 67 61 51 49 44 42 37 35 28 24 
   4   0   0   0   0   0   0   0   0   0   3   0   0   0   0   0   0   0   2   0   0   0   0   0   0   0   0   0   1   0   0  19 101 89 75 74 73 69 66 61 60 54 53 52 50 49 47 44 43 40 39 
   7   0   0   0   1   0   0   0   7   0   6   0   1   0   0   1   0   0   0   0   0   0   0   0   0   0   0   0   0   0   0  12 101 100 75 68 67 61 58 52 51 44 34 23 
   9   0   0   0   0   0   0   0   3   0   0   5   0   0   0  10   0   8   0   0   0   0   4   0   0   1   0   0   0   0   0  14 74 69 68 66 63 60 58 55 52 51 50 49 34 31 
   2   0   0   0   0   0   0   3   0   0   0   0   0   0   0   0   0   0   9   0   0   0   0   1   0   0   0   0   0   0   0   9 67 66 59 57 56 45 44 29 28 
   1   0   0   0   0   0   0   0   0   0   0   0   0   0   1   0   0   0   0   0   0   0   6   0   0   4   0   0   0   0   0  21 101 99 98 91 75 73 72 71 69 66 65 63 61 60 58 57 56 52 49 47 46 
   3   0   0   0   0   0   0   0   0   1   7   0   0  10   0   0   0   0   0   0   0   0   0   0   0   0   0   0   0   0   0  12 99 98 94 88 75 71 63 58 47 46 42 27 
   2   0   0   0   0   0   0   0   0   0   0   0   0   0   0   0   0   0   0   0   0   0   0   7   0   0   2   0   0   0   0  10 98 96 94 92 60 58 54 51 41 27 
   8   0   0   0   0   0   1   0  10   0   3   0   0   0   0   0   0   0   2   0   1   0   0   0   1   0   0   0   0   0   0  16 99 98 91 73 72 69 66 64 63 62 59 58 54 50 49 44 
   9   0   0   0   0   0   0   0   0   0   0   0   0   0   0   0   5   0   0   0   0   0   5   0   0   0   0   0   4   0   0  18 101 100 92 91 86 83 75 73 69 66 64 62 59 58 56 55 52 44 
   5   0   2   1   0   0   0   0   0   4   0   0   0   0   0   0   0   0   6   0   0   0   0   0   0   0   0   0   0   0   1  20 101 100 95 93 91 90 89 87 86 74 73 69 65 64 63 61 57 55 54 51 
   3   0   0   0   0   0   0   7   0   0   0   0   0   0   0   9   0   0   0   0   0   0   0   0  10   0   0   0   0   5   6  17 100 98 97 94 92 91 86 75 74 72 59 58 57 56 51 47 41 
   9   1   0   0   0   0   0   7   0   0   0   0   4   0   0   0   3   0   0   0   0   0   0   0   0   0   0   0   0   0   0  15 100 99 95 94 75 73 72 65 64 62 59 58 54 50 41 
  10   6   0   0   0   0   0   0   0   0   5   0   0   0   0   0   0   0   0   0   0   0   0   0   0   0   0   0   0   0   0  15 101 100 98 95 91 90 72 67 65 64 61 58 50 46 45 
   6   0   0   4   9   0   0   7   0   0   5   0   0   9   0   0   0   0   0   0   0   0   0   0   0   0   0   2   0   0   4  17 99 98 96 93 92 91 90 74 73 71 69 65 63 60 55 51 46 
  10   0   0   0   0   1   0   0   0   0   0   0   0   0  10   0   0   0   0   0   0   2   0   0   0   0   7   0   0   0   0  12 99 96 91 73 65 62 60 58 54 49 41 39 
   8   0   0   8   0   0   0   0   0   0   0   0   0   0   0   0   8   0   0   0   0   0   0   0   5   0   0   0   0   9   0  11 100 99 75 71 70 62 61 58 57 43 37 
   5   0   0   8   0   9   0   0   0   0   0   0   0   0   0   0   0   0   0   0   0   0   0   0   0   0   0   0   0   0   0  19 101 100 98 97 94 93 91 87 86 82 74 73 72 71 69 60 56 51 47 
   1   0   0   0   7   0   0   0   0   0   7   0   0   0   0   0   4   0   0   0   0   4   0   0   7   0   0   0   0   0   0  22 101 100 98 96 94 93 91 90 86 83 81 80 74 72 71 69 64 63 62 61 60 59 
   7   0   0   0   0   0   0   7   0   0   0   0   0   5   0   0   0   0   0   0   0   0   0   7   0   0   0   0   0   0   0  19 98 96 94 93 92 91 86 83 80 74 73 72 71 69 63 62 60 59 44 
  10   0   0   0   0   0   0   0   0   0   0   0   0   0   0   0  10   0   0   8   0   0   0   6   0   0   0   0   0   0   0  17 99 98 96 95 88 86 84 81 73 72 71 69 65 63 59 56 42 
   2   0   0   0   0   0   0   0   0   6   3   0   0   0   0   0   0   0   0   4   0  10   0   5   0   0   0   0   0   0   0  13 98 97 94 89 87 72 69 63 60 58 50 47 43 
   7   0   0   0   0   0   6   0   0   0   0   0   0   0   0   0   0   0   0   0   0   0   0   0   0   0   0   0   0   0   0  14 99 98 91 89 88 87 72 69 64 63 58 51 50 49 
   2   0   0   0   0   0   0   0   0   7   0   0   0   0   0   0   0   0   0   0   0   0   0   0   0   0   0   0   0   0   0  16 100 96 95 94 92 91 90 89 87 86 81 69 62 58 57 54 
   2   0   7   0   0   0   0   0   0   0   5   7   0   0   0   0   0   0   0   0   0   0   0   0   7   0   5   7   8   0   0  18 97 93 91 86 85 83 82 81 80 74 73 72 69 66 64 62 59 56 
   4   0   0   0   0   7   0   0   6   0   0   0   0   0   0   0   0   0   0   0   4   0   0   0   0   0   0   0   0   0   0  17 98 96 94 92 91 89 87 86 84 81 80 75 72 70 63 62 54 
   3   0   0   0   0   0   0   0   0   0   0   0   0   0   0   0   0   0   6   0   5   0   0   0   0   0   0   0   0   0   0  17 100 99 96 92 91 88 86 85 83 82 81 78 69 65 64 58 49 
  10   0   0   0   0   0   0   5   0   7   0   0   0   0   0   0   0   0   6   0   0   5   0   0   0   0   0   0   0   0   0  13 99 98 95 94 91 90 85 72 68 62 59 58 50 
   5   0   0   0   0   0   0   0   0   0   0   0  10   0   0   0   0   0   0   0   5   0   0   0   0   4   0   0   6   0   0  17 98 94 93 92 88 86 83 82 80 79 75 73 72 71 65 64 59 
   8   0   0   0   0   0   0   0   0   9   0   0   0   0   0   0   0   4   0   8   0   0   0   0   0   0   0   5   0   0   0  10 98 87 78 70 66 64 63 58 54 47 
   1   0   0   0   0   0   0   4   0   0   0   0   0   0   4   0   4   0   0   0   7   0   0   0   0   0   0   0   0   0   0  14 98 95 94 92 91 88 87 81 78 71 70 65 63 58 
  10   0   0   0   0   0   0   0   0   0   0   0   0   0   0   0   0   0   0   0   0   0   0   0   0   0   0   0   6   0   0  14 94 92 91 88 87 86 84 83 81 80 72 71 62 56 
   8   0   0   0   0   0   0   0   0   0   0   0   0   0   0   0   0   0   0   0   0   0   0   0   0   0   0   0   0   0   0  12 95 92 88 86 81 80 78 71 70 64 63 56 
   8   0   0   0   0   0   0   0   0   0   0   0   0   0   0   0   0   0   0   0   0   4   0   0   4   0   0   0   0   0   0  12 100 94 91 89 84 83 81 79 78 70 63 52 
  10   0   0   0   0   0   0   0   0   0   0   0   0   0   0   5   0   0   0   0   0   0   0   7   0   0   0   0   0   0   0  11 98 91 89 83 82 81 78 66 64 60 52 
   2   0   0   0   7   8   0  10   6   0   0   0   8   0   0   9   0   0   0   0   0   0   0   0   0   0   0   0   0   0   0   8 95 91 85 84 80 74 72 45 
   3   7   0   0   0   0   0   0   0   0   0   0   0   0   8   6   0   7   0   0   0   0   0   0   0   0   0   0   0   0   0  15 97 94 92 90 87 86 83 82 81 80 79 77 72 70 67 
   3   0   0   0   0   0   0   0   0   0   0   0   0   0   0   0   4   0   4   0   0   0   0   6   5   0   0   0   0   0   0   7 98 95 86 71 63 58 51 
  10   0   5   0   0   0   0   0   0   0   0   0   0   0   0   0   0   0   0   0   0   0   0   0   7   0   0   0   0   0   0   9 89 88 83 81 80 79 78 69 63 
   1   0   0   6   0   0   6   0   0   0   0   0   0   0   0   0   0   0   0   0   0   0   0   0   0   0   0   0   0   6   0  11 93 92 91 89 87 83 82 80 78 77 74 
   5   0   0   0   0   6   0   0   0   0   0   0   0   0   0   0   0   0   0   0   0   0   0   0   0   0   0   0   0   3   0  10 95 93 91 86 82 81 80 79 77 64 
   2   0   0   0   0   0   0   0   5   0   0   0   0   0   0   0   2   0   0   9   0   0   7   0   0   0   6   0   0   0   0   8 90 85 82 81 79 78 70 65 
   7   0   0   9   0   0   0   0   0   5   0   0   0   0   0   7   0   0   0   0   0   0   0   0   0   0   8   5   0   0   0   8 97 94 89 86 82 81 73 71 
   4   0   0   0   0   9   0   0   0   7   0   0   0   0   0   0   0   0   0   0   0   0   0   0   0   0   0   0   5   0  10   5 86 84 83 62 59 
   6   0   0   0   0   5   0   0   0   0   0   0   5   0   0   0   0   0   0   0   0   0   0   0   0   0   0   0   0   0   0   8 96 95 90 85 83 81 80 77 
   9   0   0   0   0   0   0   0   0   0   0   0   0   0   0   0   0   0   0   0   0   0   0   0   0   0   0   6   0   8   0   8 92 91 83 81 80 79 78 77 
   4   0   0   0   2   0   0   0   0   0   0   0   0   0   0   0   6   0   0   0   0   6   6   0   0   0   7  10   0   0   0   7 97 94 93 80 79 77 70 
   6   0   0   0   0   0   0   0   0   0   0   0   0   0   8   0   0   0   0   8   0   0   7   0   0   0   0   0   0   0   6   6 96 92 86 84 76 71 
   3   0   0   0   0   0   0   0   0   0   0   0   0   0   5   0   0   0   0   9   0   0   0   0   0   0   8   0   0   0   0   4 83 81 77 62 
   4   0   0   0   0   0   0   0   6   0   0   0   0   0   0   0   0   9   0   0   0   0   0   0   0   0   0   0   0   5   0   5 96 95 90 88 87 
   3   0   0   0   0   0   0   0   0   6   0   0   0   0   0   0   6   6   0   0   0   0   0   0   0   0   0   0   0   0   0   5 97 91 87 85 77 
   4   0   0   0   0   0   0   0   0   0  10   9   0   0   0   0   7   4   0   0   0   0   0   0   0   9   0   2   0   0   0   4 88 83 79 71 
   5   0   0   0   0   0   0   0   4   0   0   0   0   0   0   0   0   0   3   0   0   0   0   0   0   9   0   6  10   0   0   4 94 80 76 72 
   6   9   0   0   9   0   0   7   0   0   0   0   0   0   7   0   0   0   0   8   6   0   0   0   0   4   0   0   8   0   0   4 90 89 79 76 
   5   0   0   0   0   0   0   0   0   0   0   6   0   0   0   0   4   0   9   0   4   0   0   0   0   0  10   7   0   5   9   4 85 84 82 76 
   1   0   0   0   0   0   0   0   0   0   0   0   0   0   8   0   0   4   0   0   0   0   0   0   0   0   0   0   0   0   6   3 93 80 76 
   9   0   0   0   0   0   0   0   0   0   0   0   0   0   5   0   0   0   0   0   0   0   0   0   0   0   2   0   0   0   7   3 89 87 77 
  10   5   0   0   0   0   0   0   0   0   0   0   0   0   0   0   0   9   0   0   0   0   0   0   0   7   0   0   0   4   0   3 88 84 76 
   7   0   0   0   0   6   0   6   0   0   0   0   0   7   0   0   9   0   0   5   0   0   0   7   0   0   0   0   0   0   1   3 92 85 77 
  10   0   0   0   0   0   0   0   0   0   0   0   7   0   0   0   0   0   0   0   0   0   0   0   0   0   0   0   0   0   0   2 79 78 
   1   9   0   0   0   0   0   0   0   0   0   0   0   0   0   0   0   5   0   0   6   0   0   0   0   0   0   0   0   0   0   2 85 82 
   5   4   0   0   5   0   0   0   0   0   0   0   0   7   5   0   0   0   0   0   0   0   0   0   0   0   0   0   8  10   0   2 84 76 
   8   0   0   0   0   0   0   0   0   6   0   0   0   0   0   0   0   0   7   0   0   3   0   0   0   0   0   0   0   0   0   2 97 77 
   1   0  10   4   0   0   0   0   0   0   0   0   0   0   0   0   6   0   0   2   0   0   5   6   0   0   0   0   0   0   0   2 95 79 
  10   0   0   0   0   0   5   0   0   8   0   0   0   0   0   0   6   0   0   0   0   0   0   0   0   0   0  10   0   0   0   2 88 76 
   9   0   0   0   0   0   0   0   0   0   5   0   0   0   0   0   0   0  10   0   0  10   0   5   0   7   0   0   0   0   0   2 86 77 
   5   0   0   0   0   0   0   0   5   0   0   0   0   0   4   0   0   0   0  10   0   0   0   0   0   0   0   0   0   0   0   1 70 
   3   0   0   0   0   0   0   0   0   0   0   0   0   4   0   0   0   4   0   0   0   0   0   0   0   8  10   0   0   0   0   1 76 
   5   0   9   0   0   0  10   0  10   0   0   0   7   0   0   1   9   0   0   0   0   6   0   0   0   0   0   0   7   0   0   1 77 
   3   0   0   0   0   0   0   0   0   0   0   0   5   5   0   0   0   0   6   0   7   0   0   0   0   0   0   0   2   5   0   1 78 
   8   0   0   7   0   5   0   0   0   0  10   0   0   0   7   0   0  10   5   0   0   0   0   0   0   0   1   0   0   0   0   1 78 
   6   0   0   0   7   0   0   0   0   0   0   0   0   0   0   0   0   0   0   0   0   0   0   8   0   0   0   0   0   0   0   1 76 
   9   0   0   6   0   0   0   0   0   0   0   0   0   0   0   0   0   0   0   0   8   0   0   0   0   0   3   0   4   0   0   1 90 
   4   8   0   0   0   0   0   0   0   0   0   0   0   0   0   0   0   0  10   0   9   8   0   0   0   0   0   0   0   0   0   1 102
   5   0   0   0   0   0   0   0   0   0   9   0   0   0   0   0   0   0   0   3   6   0   0   0   7   7   0   0   0   8   0   1 102
   6   0   0   7   0   0   0   8   0   0   0   0   0   0   0   0   0   0   0   4   0   0   0   0   0   6  10   0   0   0   0   1 102
   5   5   0   0   0   0   0   0   0   0   0   0   8   0   0   0   4   0   0   0   7   0   0   0   0   0   0   4   0   0   0   1 102
   5   0   7   0   0   0   0   8   0   0   0   0   6   0   6   0   0   0   0   0   0   0   6   0   0   0   9   0   0   0   0   1 102
   8   0   0   0   0   6   0   0   0   0   0   0   0   0   0   0   0   0   0   0   0   0   0   0   0   0   3   0   0   0   6   1 102
   8   0   0   0   0   0   0   0   0   0   0   0   0   0   0   0   0   0   0   0   0   0   0   0   0   0   0   0   0   0   0   1 102
   4   0   0   0   0   0   0   5   0   0   0   0   5   0   0   0  10   0   0   0   0   6  10   8   0   0   0   0   0   0   0   1 102
   8   0   0   0   0   7   0   0   0   0   0   0   0   0   0   0   6   0   0   0   0   5   0   0   0   0   0   0   0   8   0   1 102
   4   0   0   6   7   0   0   0   0   0   4   3   0   0   0   0   0   0   0   0   0   0   0   0   0   0   0   0   0   0   0   1 102
   5   0   0   0   0   0   0   0   0   0   0   0   0   0   0   0   0   0   0   0   0   0   0   0   0   0   0   0   0   0   0   1 102
   3   5   0   6   0   0   6   0   0   0   0   0   0   0   0   0   0   0   0   0   0   7   9   0   0   0   5   0   0   0  10   1 102
   5   0   0   0   0   0   0   0   0   7   6   0   0   0   0   0   9   0   0   0   0   0   0   0   0   0   0   0   7   0   0   1 102
   2   0   6   0   0   0   0   4   0   0   0   9   0   0   0   0   0   4   0   2   0   0   0   0   0   0   0   0   5   0   0   1 102
   4   0   0   0   0   0   0   0   0   0   0   0   0   0   0   0   0   0   0   0   0   0   0   0   0   0   5   0   0   0   0   1 102
   2   0   0   7   0   0   0   0   0   0   7   0   0   0   0   0   0   0   0   0   0   0   0   0   0   0   0   0   7   0   0   1 102
  10   0   0   0   0   0   0   0   0   0   7   0   0   0   0   0   0   0   0   0   0   0   0   0   7   0   0  10   0   0   0   1 102
   4   0   0   0   0   0   0   0   0   0   0   0   0   0   0   0   0   0   0   0   0   0   0   0   0   0   0   3   0   0   0   1 102
   2   0   6   5   0   0   0   3   0   5   0   0   0   0   0   0   7   8   0   0   9   0   0   0   0   0   0   0   8   0   0   1 102
   4   0   0   0   0   0   0   0   0   0   0   0   0   0   0   0   0   0   0   0   0   0   0   0   0   0   0   7   0   0   0   1 102
  10   0   0   5   0   0   0   5   0   0   0   0   0   0   0   0   0   0   0   0   0   6   0   0   0   6   0   0   7   0   0   1 102
   1   0   0   0   0   3   0   0   0   0   0   0   0   0   0   0   0   6   0   0   0   0   0   6   0   0   0   0   0   0   0   1 102
   4   7   0   0   0   0   0   0   7   0   0   0   0   0   0   0   0   0   5   0   0   8   0   0   0   0   0   0   0   0   0   1 102
   9   0   6   0   0   0   8   0   0   0   0   0   0   0   0   0   0   0   0   0   0   0   0   0   0   0   0   0   0   0   0   1 102
   4   0   0   7   0   0   0   0   0   0   0   0   0   0   0   0   0   0   0   0   0   0   0   0   0   0   0   0   0   0   0   1 102
   2   0   0   0   0   0   0   0   0   0   0   8   0   0   0   0   0   7   0   0   0   0   0   5   0   0   7   0   5   0   6   1 102
   0   0   0   0   0   0   0   0   0   0   0   0   0   0   0   0   0   0   0   0   0   0   0   0   0   0   0   0   0   0   0   0 
